41
44
19
92
96
2
42
14
64
83
87
66
74
60
34
72
65
79
81
56
100
26
49
86
68
10
21
90
12
71
27
61
35
94
57
7
84
58
52
43
89
4
6
15
33
82
51
48
31
63
13
78
16
50
54
37
80
20
38
46
25
9
1
95
98
32
59
76
29
8
99
97
91
28
3
11
93
85
73
53
70
39
40
67
5
62
69
30
75
47
88
23
22
55
77
24
18
45
36
17
41
